\ Model NDST_copy
\ LP format - for model browsing. Use MPS format to capture full model detail.
Minimize
 
Subject To
 R5: ugit[2,101,1] + ugit[2,101,2] + ugit[2,102,1] + ugit[2,102,2]
   + ugit[2,203,1] + ugit[2,203,2] + ugit[2,303,1] + ugit[2,303,2] = 1
 R7: vgit[2,101,1] + vgit[2,101,2] + vgit[2,102,1] + vgit[2,102,2]
   + vgit[2,203,1] + vgit[2,203,2] + vgit[2,303,1] + vgit[2,303,2] = 1
 R59: ugit[2,101,2] + ugit[2,102,2] + ugit[2,203,2] + ugit[2,303,2]
   - vgit[2,101,2] - vgit[2,102,2] - vgit[2,203,2] - vgit[2,303,2] = 0
 R173: difgLit[2,101,1,1] + xLt[1,1] - Rgi[2,101,1] >= 0
 R175: difgLit[2,101,2,1] + xLt[2,1] - Rgi[2,101,1] >= 0
 R177: difgLit[2,102,1,1] + xLt[1,1] - Rgi[2,102,1] >= 0
 R179: difgLit[2,102,2,1] + xLt[2,1] - Rgi[2,102,1] >= 0
 R181: difgLit[2,203,1,1] + xLt[1,1] - Rgi[2,203,1] >= 0
 R183: difgLit[2,203,2,1] + xLt[2,1] - Rgi[2,203,1] >= 0
 R185: difgLit[2,303,1,1] + xLt[1,1] - Rgi[2,303,1] >= 0
 R187: difgLit[2,303,2,1] + xLt[2,1] - Rgi[2,303,1] >= 0
 R212: - 10000 ugit[2,101,1] - dgLit[2,101,1] + pgLit[2,101,1] >= -10000
 R213: - 10000 ugit[2,101,2] - dgLit[2,101,2] + pgLit[2,101,2] >= -10000
 R214: - 10000 ugit[2,102,1] - dgLit[2,102,1] + pgLit[2,102,1] >= -10000
 R215: - 10000 ugit[2,102,2] - dgLit[2,102,2] + pgLit[2,102,2] >= -10000
 R216: - 10000 ugit[2,203,1] - dgLit[2,203,1] + pgLit[2,203,1] >= -10000
 R217: - 10000 ugit[2,203,2] - dgLit[2,203,2] + pgLit[2,203,2] >= -10000
 R218: - 10000 ugit[2,303,1] - dgLit[2,303,1] + pgLit[2,303,1] >= -10000
 R219: - 10000 ugit[2,303,2] - dgLit[2,303,2] + pgLit[2,303,2] >= -10000
 R247: dgij[2,101,203,1] + Rgi[2,203,1] - Lgi[2,101,1] >= 0
 R313: dgij[2,303,102,1] - Rgi[2,102,1] + Lgi[2,303,1] >= 0
 R343: - 4.69823569096683 zgij[2,101,203] - dgij[2,101,203]
   + pgij[2,101,203] >= -4.69823569096683
 R361: - 4.69823569096683 zgij[2,303,102] - dgij[2,303,102]
   + pgij[2,303,102] >= -4.69823569096683
 R381: difgRit[2,101,1,1] + xRt[1,1] - Lgi[2,101,1] >= 0
 R383: difgRit[2,101,2,1] + xRt[2,1] - Lgi[2,101,1] >= 0
 R385: difgRit[2,102,1,1] + xRt[1,1] - Lgi[2,102,1] >= 0
 R387: difgRit[2,102,2,1] + xRt[2,1] - Lgi[2,102,1] >= 0
 R389: difgRit[2,203,1,1] + xRt[1,1] - Lgi[2,203,1] >= 0
 R391: difgRit[2,203,2,1] + xRt[2,1] - Lgi[2,203,1] >= 0
 R393: difgRit[2,303,1,1] + xRt[1,1] - Lgi[2,303,1] >= 0
 R395: difgRit[2,303,2,1] + xRt[2,1] - Lgi[2,303,1] >= 0
 R452: - 10000 vgit[2,101,1] - dgRit[2,101,1] + pgRit[2,101,1] >= -10000
 R453: - 10000 vgit[2,101,2] - dgRit[2,101,2] + pgRit[2,101,2] >= -10000
 R454: - 10000 vgit[2,102,1] - dgRit[2,102,1] + pgRit[2,102,1] >= -10000
 R455: - 10000 vgit[2,102,2] - dgRit[2,102,2] + pgRit[2,102,2] >= -10000
 R456: - 10000 vgit[2,203,1] - dgRit[2,203,1] + pgRit[2,203,1] >= -10000
 R457: - 10000 vgit[2,203,2] - dgRit[2,203,2] + pgRit[2,203,2] >= -10000
 R458: - 10000 vgit[2,303,1] - dgRit[2,303,1] + pgRit[2,303,1] >= -10000
 R459: - 10000 vgit[2,303,2] - dgRit[2,303,2] + pgRit[2,303,2] >= -10000
 R461: 100000 ugit[2,101,1] + 100000 ugit[2,102,1] + 100000 ugit[2,203,1]
   + 100000 ugit[2,303,1] + 0.3333333333333333 pgLit[2,101,1]
   + 0.3333333333333333 pgLit[2,102,1] + 0.3333333333333333 pgLit[2,203,1]
   + 0.3333333333333333 pgLit[2,303,1] + 0.3333333333333333 pgRit[2,101,1]
   + 0.3333333333333333 pgRit[2,102,1] + 0.3333333333333333 pgRit[2,203,1]
   + 0.3333333333333333 pgRit[2,303,1] + 0.3333333333333333 pgij[2,101,102]
   + 0.3333333333333333 pgij[2,101,203]
   + 0.3333333333333333 pgij[2,101,303]
   + 0.3333333333333333 pgij[2,102,101]
   + 0.3333333333333333 pgij[2,102,203]
   + 0.3333333333333333 pgij[2,102,303]
   + 0.3333333333333333 pgij[2,203,101]
   + 0.3333333333333333 pgij[2,203,102]
   + 0.3333333333333333 pgij[2,203,303]
   + 0.3333333333333333 pgij[2,303,101]
   + 0.3333333333333333 pgij[2,303,102]
   + 0.3333333333333333 pgij[2,303,203] - dLRt[1]
   + 0.8742213278525002 pgi[2,101] + 1.520531350892036 pgi[2,102]
   + 1.416783777571749 pgi[2,203] + 1.018292224474248 pgi[2,303] <= 100000
 R463: 100000 ugit[2,101,2] + 100000 ugit[2,102,2] + 100000 ugit[2,203,2]
   + 100000 ugit[2,303,2] + 0.3333333333333333 pgLit[2,101,2]
   + 0.3333333333333333 pgLit[2,102,2] + 0.3333333333333333 pgLit[2,203,2]
   + 0.3333333333333333 pgLit[2,303,2] + 0.3333333333333333 pgRit[2,101,2]
   + 0.3333333333333333 pgRit[2,102,2] + 0.3333333333333333 pgRit[2,203,2]
   + 0.3333333333333333 pgRit[2,303,2] + 0.3333333333333333 pgij[2,101,102]
   + 0.3333333333333333 pgij[2,101,203]
   + 0.3333333333333333 pgij[2,101,303]
   + 0.3333333333333333 pgij[2,102,101]
   + 0.3333333333333333 pgij[2,102,203]
   + 0.3333333333333333 pgij[2,102,303]
   + 0.3333333333333333 pgij[2,203,101]
   + 0.3333333333333333 pgij[2,203,102]
   + 0.3333333333333333 pgij[2,203,303]
   + 0.3333333333333333 pgij[2,303,101]
   + 0.3333333333333333 pgij[2,303,102]
   + 0.3333333333333333 pgij[2,303,203] - dLRt[2]
   + 0.8742213278525002 pgi[2,101] + 1.520531350892036 pgi[2,102]
   + 1.416783777571749 pgi[2,203] + 1.018292224474248 pgi[2,303] <= 100000
 R501: Rgi[2,101,1] - 0.2796637981093113 rhogi[2,101] = 95.18502754605746
 R503: Lgi[2,101,1] - 0.2796637981093113 landagi[2,101]
   = 95.18502754605746
 R509: Rgi[2,102,1] + 4.535308655833234 rhogi[2,102] = 100
 R511: Lgi[2,102,1] + 4.535308655833234 landagi[2,102] = 100
 R519: Lgi[2,203,1] + 4.249297139465654 landagi[2,203] = 99.43432468552311
 R525: Rgi[2,303,1] - 0.5656753144768913 rhogi[2,303] = 99.43432468552311
 R529: 2.622663983557501 pgi[2,101] + 4.561594052676108 pgi[2,102]
   + 4.250351332715247 pgi[2,203] + 3.054876673422743 pgi[2,303]
   >= 13.84424493007909
 R587: - muxLt[202,1] + pLet[202,1] <= 0
 R589: - muRet[202,1] + pRet[202,1] <= 0
 R597: - muLet[202,2] + pLet[202,2] <= 0
 R600: - muRet[202,2] + pRet[202,2] <= 0
 R795: - 34.14213562373095 zeeLRt[101,101,1] + peeLRt[101,101,1] <= 0
 R800: - muLet[101,1] + zeeLRt[101,101,1] <= 0
 R801: - muRet[101,1] + zeeLRt[101,101,1] <= 0
 R803: - 34.14213562373095 zeeLRt[101,101,2] + peeLRt[101,101,2] <= 0
 R808: - muLet[101,2] + zeeLRt[101,101,2] <= 0
 R809: - muRet[101,2] + zeeLRt[101,101,2] <= 0
 R827: - 34.14213562373095 zeeLRt[101,202,1] + peeLRt[101,202,1] <= 0
 R832: - muLet[101,1] + zeeLRt[101,202,1] <= 0
 R833: - muRet[202,1] + zeeLRt[101,202,1] <= 0
 R835: - 34.14213562373095 zeeLRt[101,202,2] + peeLRt[101,202,2] <= 0
 R840: - muLet[101,2] + zeeLRt[101,202,2] <= 0
 R841: - muRet[202,2] + zeeLRt[101,202,2] <= 0
 R859: - 34.14213562373095 zeeLRt[202,101,1] + peeLRt[202,101,1] <= 0
 R864: - muLet[202,1] + zeeLRt[202,101,1] <= 0
 R865: - muRet[101,1] + zeeLRt[202,101,1] <= 0
 R867: - 34.14213562373095 zeeLRt[202,101,2] + peeLRt[202,101,2] <= 0
 R872: - muLet[202,2] + zeeLRt[202,101,2] <= 0
 R873: - muRet[101,2] + zeeLRt[202,101,2] <= 0
 R891: - 34.14213562373095 zeeLRt[202,202,1] + peeLRt[202,202,1] <= 0
 R896: - muLet[202,1] + zeeLRt[202,202,1] <= 0
 R897: - muRet[202,1] + zeeLRt[202,202,1] <= 0
 R899: - 34.14213562373095 zeeLRt[202,202,2] + peeLRt[202,202,2] <= 0
 R904: - muLet[202,2] + zeeLRt[202,202,2] <= 0
 R905: - muRet[202,2] + zeeLRt[202,202,2] <= 0
 R927: - peeLRt[101,101,1] - peeLRt[101,202,1] - peeLRt[202,101,1]
   - peeLRt[202,202,1] + dLRt[1] = 0
 R928: - peeLRt[101,101,2] - peeLRt[101,202,2] - peeLRt[202,101,2]
   - peeLRt[202,202,2] + dLRt[2] = 0
 R1092: - 30 muLet[101,1] - 30 muLet[202,1] - 10 pLet[202,1] + xLt[1,1]
   = 0
 R1093: - 30 muRet[101,1] - 30 muRet[202,1] - 10 pRet[202,1] + xRt[1,1]
   = 0
 R1096: - 30 muLet[101,2] - 30 muLet[202,2] - 10 pLet[202,2] + xLt[2,1]
   = 0
 R1097: - 30 muRet[101,2] - 30 muRet[202,2] - 10 pRet[202,2] + xRt[2,1]
   = 0
 R1103: muLet[101,1] + muLet[202,1] = 1
 R1104: muLet[101,2] + muLet[202,2] = 1
 R1107: muRet[101,1] + muRet[202,1] = 1
 R1108: muRet[101,2] + muRet[202,2] = 1
 qc0: [ - dgLit[2,101,1] ^2 + difgLit[2,101,1,0] ^2 + difgLit[2,101,1,1] ^2
   ] <= 0
 qc1: [ - dgLit[2,101,2] ^2 + difgLit[2,101,2,0] ^2 + difgLit[2,101,2,1] ^2
   ] <= 0
 qc2: [ - dgLit[2,102,1] ^2 + difgLit[2,102,1,0] ^2 + difgLit[2,102,1,1] ^2
   ] <= 0
 qc3: [ - dgLit[2,102,2] ^2 + difgLit[2,102,2,0] ^2 + difgLit[2,102,2,1] ^2
   ] <= 0
 qc4: [ - dgLit[2,203,1] ^2 + difgLit[2,203,1,0] ^2 + difgLit[2,203,1,1] ^2
   ] <= 0
 qc5: [ - dgLit[2,203,2] ^2 + difgLit[2,203,2,0] ^2 + difgLit[2,203,2,1] ^2
   ] <= 0
 qc6: [ - dgLit[2,303,1] ^2 + difgLit[2,303,1,0] ^2 + difgLit[2,303,1,1] ^2
   ] <= 0
 qc7: [ - dgLit[2,303,2] ^2 + difgLit[2,303,2,0] ^2 + difgLit[2,303,2,1] ^2
   ] <= 0
 qc8: [ - dgij[2,101,203] ^2 + dgij[2,101,203,0] ^2 + dgij[2,101,203,1] ^2
   ] <= 0
 qc9: [ - dgij[2,303,102] ^2 + dgij[2,303,102,0] ^2 + dgij[2,303,102,1] ^2
   ] <= 0
 qc10: [ - dgRit[2,101,1] ^2 + difgRit[2,101,1,0] ^2
   + difgRit[2,101,1,1] ^2 ] <= 0
 qc11: [ - dgRit[2,101,2] ^2 + difgRit[2,101,2,0] ^2
   + difgRit[2,101,2,1] ^2 ] <= 0
 qc12: [ - dgRit[2,102,1] ^2 + difgRit[2,102,1,0] ^2
   + difgRit[2,102,1,1] ^2 ] <= 0
 qc13: [ - dgRit[2,102,2] ^2 + difgRit[2,102,2,0] ^2
   + difgRit[2,102,2,1] ^2 ] <= 0
 qc14: [ - dgRit[2,203,1] ^2 + difgRit[2,203,1,0] ^2
   + difgRit[2,203,1,1] ^2 ] <= 0
 qc15: [ - dgRit[2,203,2] ^2 + difgRit[2,203,2,0] ^2
   + difgRit[2,203,2,1] ^2 ] <= 0
 qc16: [ - dgRit[2,303,1] ^2 + difgRit[2,303,1,0] ^2
   + difgRit[2,303,1,1] ^2 ] <= 0
 qc17: [ - dgRit[2,303,2] ^2 + difgRit[2,303,2,0] ^2
   + difgRit[2,303,2,1] ^2 ] <= 0
Bounds
 difgLit[2,101,1,0] free
 difgLit[2,101,1,1] free
 difgLit[2,101,2,0] free
 difgLit[2,101,2,1] free
 difgLit[2,102,1,0] free
 difgLit[2,102,1,1] free
 difgLit[2,102,2,0] free
 difgLit[2,102,2,1] free
 difgLit[2,203,1,0] free
 difgLit[2,203,1,1] free
 difgLit[2,203,2,0] free
 difgLit[2,203,2,1] free
 difgLit[2,303,1,0] free
 difgLit[2,303,1,1] free
 difgLit[2,303,2,0] free
 difgLit[2,303,2,1] free
 difgRit[2,101,1,0] free
 difgRit[2,101,1,1] free
 difgRit[2,101,2,0] free
 difgRit[2,101,2,1] free
 difgRit[2,102,1,0] free
 difgRit[2,102,1,1] free
 difgRit[2,102,2,0] free
 difgRit[2,102,2,1] free
 difgRit[2,203,1,0] free
 difgRit[2,203,1,1] free
 difgRit[2,203,2,0] free
 difgRit[2,203,2,1] free
 difgRit[2,303,1,0] free
 difgRit[2,303,1,1] free
 difgRit[2,303,2,0] free
 difgRit[2,303,2,1] free
 dgij[2,101,203,0] free
 dgij[2,101,203,1] free
 dgij[2,303,102,0] free
 dgij[2,303,102,1] free
 pgij[2,101,203] free
 pgij[2,303,102] free
 -infinity <= muxLt[202,1] <= 1
 pLet[202,1] free
 pLet[202,2] free
 pRet[202,1] free
 pRet[202,2] free
 peeLRt[101,101,1] free
 peeLRt[101,101,2] free
 peeLRt[101,202,1] free
 peeLRt[101,202,2] free
 peeLRt[202,101,1] free
 peeLRt[202,101,2] free
 peeLRt[202,202,1] free
 peeLRt[202,202,2] free
 dLRt[1] free
 dLRt[2] free
 xLt[1,1] free
 xLt[2,1] free
 xRt[1,1] free
 xRt[2,1] free
 Rgi[2,101,1] free
 Rgi[2,102,1] free
 Rgi[2,203,1] free
 Rgi[2,303,1] free
 -infinity <= rhogi[2,102] <= 1
 Lgi[2,101,1] free
 Lgi[2,102,1] free
 Lgi[2,203,1] free
 Lgi[2,303,1] free
 -infinity <= landagi[2,102] <= 1
 -infinity <= landagi[2,203] <= 1
 pgi[2,101] free
 pgi[2,102] free
 pgi[2,203] free
 pgi[2,303] free
Binaries
 ugit[2,101,1] ugit[2,101,2] ugit[2,102,1] ugit[2,102,2] ugit[2,203,1]
 ugit[2,203,2] ugit[2,303,1] ugit[2,303,2] vgit[2,101,1] vgit[2,101,2]
 vgit[2,102,1] vgit[2,102,2] vgit[2,203,1] vgit[2,203,2] vgit[2,303,1]
 vgit[2,303,2] zgij[2,101,203] zgij[2,303,102] muLet[101,1] muLet[101,2]
 muLet[202,1] muLet[202,2] muRet[101,1] muRet[101,2] muRet[202,1]
 muRet[202,2] zeeLRt[101,101,1] zeeLRt[101,101,2] zeeLRt[101,202,1]
 zeeLRt[101,202,2] zeeLRt[202,101,1] zeeLRt[202,101,2] zeeLRt[202,202,1]
 zeeLRt[202,202,2]
End
